problem_generation/data/GISP/train/er_n=65_m=1235_p=0.60_SET2_setparam=100.00_alpha=0.50_223.lp
maximize
OBJ:100x0 + 100x1 + 100x2 + 100x3 + 100x4 + 100x5 + 100x6 + 100x7 + 100x8 + 100x9 + 100x10 + 100x11 + 100x12 + 100x13 + 100x14 + 100x15 + 100x16 + 100x17 + 100x18 + 100x19 + 100x20 + 100x21 + 100x22 + 100x23 + 100x24 + 100x25 + 100x26 + 100x27 + 100x28 + 100x29 + 100x30 + 100x31 + 100x32 + 100x33 + 100x34 + 100x35 + 100x36 + 100x37 + 100x38 + 100x39 + 100x40 + 100x41 + 100x42 + 100x43 + 100x44 + 100x45 + 100x46 + 100x47 + 100x48 + 100x49 + 100x50 + 100x51 + 100x52 + 100x53 + 100x54 + 100x55 + 100x56 + 100x57 + 100x58 + 100x59 + 100x60 + 100x61 + 100x62 + 100x63 + 100x64 - y15_39 - y26_39 - y18_35 - y29_32 - y29_50 - y29_59 - y21_55 - y10_27 - y41_42 - y25_34 - y10_45 - y44_47 - y3_15 - y2_59 - y25_61 - y32_60 - y22_46 - y3_42 - y36_48 - y7_30 - y5_60 - y17_62 - y6_34 - y29_36 - y6_43 - y48_58 - y29_54 - y40_54 - y29_63 - y40_63 - y33_42 - y44_51 - y10_58 - y22_23 - y32_55 - y43_64 - y13_60 - y59_63 - y5_55 - y9_53 - y6_29 - y21_27 - y6_38 - y6_47 - y6_56 - y54_60 - y2_31 - y2_40 - y32_41 - y3_14 - y43_50 - y22_27 - y24_46 - y3_23 - y35_55 - y13_64 - y5_41 - y28_43 - y6_24 - y9_57 - y21_22 - y50_58 - y6_33 - y21_31 - y40_44 - y21_40 - y20_53 - y10_30 - y31_62 - y24_32 - y3_9 - y43_45 - y13_41 - y24_41 - y3_18 - y16_37 - y35_41 - y1_48 - y43_54 - y16_46 - y13_59 - y16_55 - y5_27 - y17_29 - y5_36 - y17_38 - y9_34 - y9_43 - y17_56 - y28_56 - y5_63 - y6_28 - y29_30 - y9_61 - y61_62 - y42_58 - y39_43 - y2_3 - y10_16 - y39_52 - y2_12 - y2_21 - y12_53 - y4_49 - y24_27 - y32_40 - y1_34 - y13_36 - y16_32 - y13_45 - y24_45 - y35_45 - y24_54 - y16_50 - y9_11 - y5_31 - y28_33 - y3_47 - y5_40 - y9_38 - y6_14 - y5_58 - y6_32 - y21_30 - y27_64 - y30_60 - y20_34 - y10_11 - y31_43 - y12_48 - y4_44 - y4_62 - y43_53 - y16_36 - y46_55 - y9_15 - y38_51 - y9_24 - y27_41 - y19_55 - y11_51 - y11_60 - y23_25 - y2_11 - y39_60 - y12_43 - y4_48 - y23_61 - y13_26 - y24_26 - y24_35 - y1_42 - y13_44 - y24_44 - y35_44 - y17_23 - y46_59 - y57_59 - y9_19 - y38_64 - y30_41 - y50_56 - y0_37 - y20_24 - y20_42 - y31_42 - y12_38 - y4_34 - y12_47 - y1_10 - y16_26 - y22_60 - y45_62 - y5_16 - y15_48 - y46_63 - y15_57 - y38_59 - y27_31 - y8_36 - y19_36 - y30_36 - y0_32 - y11_32 - y8_45 - y0_41 - y11_41 - y0_59 - y12_24 - y39_41 - y20_37 - y4_20 - y31_37 - y52_60 - y1_5 - y4_47 - y24_25 - y3_51 - y22_64 - y15_34 - y5_11 - y26_43 - y15_52 - y15_61 - y26_61 - y49_63 - y7_57 - y8_22 - y19_31 - y30_40 - y27_53 - y8_49 - y11_45 - y41_46 - y23_28 - y33_60 - y23_37 - y1_9 - y53_56 - y37_39 - y3_46 - y37_48 - y22_59 - y34_61 - y37_57 - y15_29 - y26_29 - y18_25 - y18_34 - y15_47 - y7_43 - y11_13 - y8_26 - y19_26 - y11_22 - y44_46 - y25_51 - y33_64 - y44_64 - y22_36 - y34_47 - y3_41 - y3_59 - y15_24 - y37_61 - y18_20 - y15_42 - y15_51 - y8_12 - y0_8 - y0_17 - y0_26 - y63_64 - y4_5 - y33_41 - y52_54 - y52_63 - y2_44 - y10_57 - y2_53 - y25_55 - y25_64 - y22_40 - y22_49 - y22_58 - y47_60 - y59_62 - y26_37 - y7_33 - y26_46 - y29_39 - y29_48 - y21_62 - y25_32 - y33_45 - y2_39 - y25_41 - y2_48 - y3_13 - y25_50 - y44_63 - y34_37 - y3_31 - y14_31 - y22_44 - y3_49 - y15_23 - y26_32 - y28_51 - y36_64 - y17_60 - y7_37 - y18_37 - y8_11 - y29_43 - y40_52 - y29_61 - y41_44 - y10_38 - y2_34 - y10_47 - y10_56 - y3_17 - y2_61 - y22_39 - y3_44 - y18_23 - y5_53 - y28_55 - y9_51 - y5_62 - y17_64 - y21_25 - y0_2 - y29_38 - y48_51 - y21_43 - y40_56 - y10_15 - y21_61 - y10_24 - y2_20 - y2_29 - y25_31 - y25_40 - y10_51 - y51_52 - y32_48 - y51_61 - y14_21 - y14_30 - y1_60 - y13_62 - y36_45 - y17_50 - y36_63 - y9_46 - y9_55 - y29_42 - y21_38 - y2_15 - y54_62 - y2_33 - y32_34 - y32_43 - y51_56 - y24_39 - y35_48 - y14_25 - y43_61 - y1_55 - y24_57 - y36_40 - y9_23 - y47_49 - y17_45 - y6_8 - y28_45 - y36_58 - y5_52 - y6_17 - y9_50 - y28_63 - y20_55 - y10_32 - y12_51 - y23_51 - y20_64 - y32_38 - y32_47 - y13_43 - y43_56 - y1_59 - y24_61 - y35_61 - y17_22 - y5_20 - y9_18 - y17_31 - y28_31 - y9_27 - y17_40 - y28_40 - y9_45 - y6_21 - y9_54 - y42_51 - y50_64 - y19_58 - y2_5 - y20_41 - y10_18 - y31_41 - y39_54 - y54_61 - y4_42 - y23_55 - y35_38 - y16_34 - y16_43 - y35_56 - y1_63 - y46_62 - y9_22 - y38_58 - y5_33 - y9_40 - y6_16 - y6_25 - y58_63 - y27_57 - y8_53 - y19_53 - y42_55 - y0_49 - y30_62 - y39_58 - y20_54 - y4_46 - y1_22 - y4_64 - y16_29 - y35_51 - y46_48 - y38_44 - y17_21 - y46_57 - y9_17 - y15_60 - y38_62 - y9_35 - y6_20 - y8_39 - y42_50 - y8_57 - y30_57 - y11_53 - y39_44 - y2_4 - y4_23 - y31_40 - y20_58 - y12_54 - y1_17 - y13_19 - y4_50 - y13_28 - y13_37 - y24_37 - y16_33 - y16_42 - y5_14 - y9_12 - y38_48 - y46_61 - y5_32 - y7_51 - y18_51 - y15_64 - y7_60 - y27_38 - y30_34 - y19_43 - y30_43 - y30_52 - y31_35 - y4_18 - y23_40 - y1_3 - y12_49 - y1_12 - y4_45 - y53_59 - y1_30 - y37_51 - y22_62 - y46_47 - y26_41 - y46_56 - y49_52 - y26_59 - y38_61 - y27_33 - y8_29 - y11_25 - y27_51 - y42_49 - y11_43 - y8_56 - y19_56 - y20_21 - y0_52 - y30_56 - y52_53 - y52_62 - y33_58 - y25_63 - y1_25 - y34_59 - y3_62 - y14_62 - y15_27 - y46_51 - y18_32 - y38_47 - y7_41 - y15_54 - y26_54 - y38_56 - y7_50 - y7_59 - y8_33 - y19_33 - y27_46 - y30_33 - y19_42 - y0_47 - y20_25 - y33_53 - y23_30 - y1_2 - y22_43 - y37_50 - y22_61 - y3_57 - y15_31 - y18_27 - y15_58 - y7_54 - y8_19 - y27_32 - y8_28 - y11_24 - y29_60 - y8_37 - y19_37 - y30_37 - y0_33 - y40_60 - y0_42 - y12_16 - y44_48 - y52_61 - y4_21 - y33_57 - y2_51 - y10_64 - y22_29 - y2_60 - y3_43 - y14_43 - y45_58 - y14_61 - y15_26 - y59_60 - y26_44 - y17_63 - y0_1 - y18_49 - y19_23 - y48_59 - y0_19 - y40_55 - y0_28 - y29_64 - y21_60 - y33_34 - y25_30 - y4_16 - y33_52 - y25_57 - y22_33 - y34_35 - y3_29 - y14_29 - y22_51 - y14_47 - y3_56
 Subject to
C1: x0+x1-y0_1 <=1 
C2: x0+x2-y0_2 <=1 
C3: x0+x3 <=1 
C4: x0+x4 <=1 
C5: x0+x5 <=1 
C6: x0+x8-y0_8 <=1 
C7: x0+x15 <=1 
C8: x0+x16 <=1 
C9: x0+x17-y0_17 <=1 
C10: x0+x18 <=1 
C11: x0+x19-y0_19 <=1 
C12: x0+x23 <=1 
C13: x0+x26-y0_26 <=1 
C14: x0+x27 <=1 
C15: x0+x28-y0_28 <=1 
C16: x0+x30 <=1 
C17: x0+x32-y0_32 <=1 
C18: x0+x33-y0_33 <=1 
C19: x0+x34 <=1 
C20: x0+x35 <=1 
C21: x0+x37-y0_37 <=1 
C22: x0+x40 <=1 
C23: x0+x41-y0_41 <=1 
C24: x0+x42-y0_42 <=1 
C25: x0+x44 <=1 
C26: x0+x45 <=1 
C27: x0+x47-y0_47 <=1 
C28: x0+x49-y0_49 <=1 
C29: x0+x50 <=1 
C30: x0+x51 <=1 
C31: x0+x52-y0_52 <=1 
C32: x0+x53 <=1 
C33: x0+x56 <=1 
C34: x0+x58 <=1 
C35: x0+x59-y0_59 <=1 
C36: x0+x60 <=1 
C37: x0+x61 <=1 
C38: x0+x62 <=1 
C39: x0+x63 <=1 
C40: x1+x2-y1_2 <=1 
C41: x1+x3-y1_3 <=1 
C42: x1+x4 <=1 
C43: x1+x5-y1_5 <=1 
C44: x1+x6 <=1 
C45: x1+x8 <=1 
C46: x1+x9-y1_9 <=1 
C47: x1+x10-y1_10 <=1 
C48: x1+x11 <=1 
C49: x1+x12-y1_12 <=1 
C50: x1+x13 <=1 
C51: x1+x15 <=1 
C52: x1+x17-y1_17 <=1 
C53: x1+x18 <=1 
C54: x1+x19 <=1 
C55: x1+x22-y1_22 <=1 
C56: x1+x24 <=1 
C57: x1+x25-y1_25 <=1 
C58: x1+x26 <=1 
C59: x1+x29 <=1 
C60: x1+x30-y1_30 <=1 
C61: x1+x34-y1_34 <=1 
C62: x1+x35 <=1 
C63: x1+x37 <=1 
C64: x1+x39 <=1 
C65: x1+x41 <=1 
C66: x1+x42-y1_42 <=1 
C67: x1+x44 <=1 
C68: x1+x45 <=1 
C69: x1+x47 <=1 
C70: x1+x48-y1_48 <=1 
C71: x1+x49 <=1 
C72: x1+x51 <=1 
C73: x1+x52 <=1 
C74: x1+x55-y1_55 <=1 
C75: x1+x59-y1_59 <=1 
C76: x1+x60-y1_60 <=1 
C77: x1+x62 <=1 
C78: x1+x63-y1_63 <=1 
C79: x1+x64 <=1 
C80: x2+x3-y2_3 <=1 
C81: x2+x4-y2_4 <=1 
C82: x2+x5-y2_5 <=1 
C83: x2+x6 <=1 
C84: x2+x9 <=1 
C85: x2+x11-y2_11 <=1 
C86: x2+x12-y2_12 <=1 
C87: x2+x13 <=1 
C88: x2+x15-y2_15 <=1 
C89: x2+x17 <=1 
C90: x2+x18 <=1 
C91: x2+x19 <=1 
C92: x2+x20-y2_20 <=1 
C93: x2+x21-y2_21 <=1 
C94: x2+x23 <=1 
C95: x2+x25 <=1 
C96: x2+x27 <=1 
C97: x2+x29-y2_29 <=1 
C98: x2+x31-y2_31 <=1 
C99: x2+x33-y2_33 <=1 
C100: x2+x34-y2_34 <=1 
C101: x2+x35 <=1 
C102: x2+x37 <=1 
C103: x2+x38 <=1 
C104: x2+x39-y2_39 <=1 
C105: x2+x40-y2_40 <=1 
C106: x2+x43 <=1 
C107: x2+x44-y2_44 <=1 
C108: x2+x48-y2_48 <=1 
C109: x2+x49 <=1 
C110: x2+x50 <=1 
C111: x2+x51-y2_51 <=1 
C112: x2+x53-y2_53 <=1 
C113: x2+x56 <=1 
C114: x2+x59-y2_59 <=1 
C115: x2+x60-y2_60 <=1 
C116: x2+x61-y2_61 <=1 
C117: x3+x5 <=1 
C118: x3+x9-y3_9 <=1 
C119: x3+x13-y3_13 <=1 
C120: x3+x14-y3_14 <=1 
C121: x3+x15-y3_15 <=1 
C122: x3+x16 <=1 
C123: x3+x17-y3_17 <=1 
C124: x3+x18-y3_18 <=1 
C125: x3+x22 <=1 
C126: x3+x23-y3_23 <=1 
C127: x3+x28 <=1 
C128: x3+x29-y3_29 <=1 
C129: x3+x31-y3_31 <=1 
C130: x3+x32 <=1 
C131: x3+x33 <=1 
C132: x3+x34 <=1 
C133: x3+x37 <=1 
C134: x3+x39 <=1 
C135: x3+x41-y3_41 <=1 
C136: x3+x42-y3_42 <=1 
C137: x3+x43-y3_43 <=1 
C138: x3+x44-y3_44 <=1 
C139: x3+x45 <=1 
C140: x3+x46-y3_46 <=1 
C141: x3+x47-y3_47 <=1 
C142: x3+x49-y3_49 <=1 
C143: x3+x50 <=1 
C144: x3+x51-y3_51 <=1 
C145: x3+x53 <=1 
C146: x3+x55 <=1 
C147: x3+x56-y3_56 <=1 
C148: x3+x57-y3_57 <=1 
C149: x3+x58 <=1 
C150: x3+x59-y3_59 <=1 
C151: x3+x62-y3_62 <=1 
C152: x3+x63 <=1 
C153: x4+x5-y4_5 <=1 
C154: x4+x9 <=1 
C155: x4+x10 <=1 
C156: x4+x11 <=1 
C157: x4+x13 <=1 
C158: x4+x16-y4_16 <=1 
C159: x4+x18-y4_18 <=1 
C160: x4+x20-y4_20 <=1 
C161: x4+x21-y4_21 <=1 
C162: x4+x23-y4_23 <=1 
C163: x4+x28 <=1 
C164: x4+x30 <=1 
C165: x4+x34-y4_34 <=1 
C166: x4+x35 <=1 
C167: x4+x42-y4_42 <=1 
C168: x4+x43 <=1 
C169: x4+x44-y4_44 <=1 
C170: x4+x45-y4_45 <=1 
C171: x4+x46-y4_46 <=1 
C172: x4+x47-y4_47 <=1 
C173: x4+x48-y4_48 <=1 
C174: x4+x49-y4_49 <=1 
C175: x4+x50-y4_50 <=1 
C176: x4+x54 <=1 
C177: x4+x56 <=1 
C178: x4+x57 <=1 
C179: x4+x60 <=1 
C180: x4+x61 <=1 
C181: x4+x62-y4_62 <=1 
C182: x4+x64-y4_64 <=1 
C183: x5+x6 <=1 
C184: x5+x9 <=1 
C185: x5+x10 <=1 
C186: x5+x11-y5_11 <=1 
C187: x5+x13 <=1 
C188: x5+x14-y5_14 <=1 
C189: x5+x15 <=1 
C190: x5+x16-y5_16 <=1 
C191: x5+x17 <=1 
C192: x5+x20-y5_20 <=1 
C193: x5+x23 <=1 
C194: x5+x24 <=1 
C195: x5+x25 <=1 
C196: x5+x26 <=1 
C197: x5+x27-y5_27 <=1 
C198: x5+x29 <=1 
C199: x5+x30 <=1 
C200: x5+x31-y5_31 <=1 
C201: x5+x32-y5_32 <=1 
C202: x5+x33-y5_33 <=1 
C203: x5+x36-y5_36 <=1 
C204: x5+x37 <=1 
C205: x5+x40-y5_40 <=1 
C206: x5+x41-y5_41 <=1 
C207: x5+x44 <=1 
C208: x5+x45 <=1 
C209: x5+x48 <=1 
C210: x5+x49 <=1 
C211: x5+x51 <=1 
C212: x5+x52-y5_52 <=1 
C213: x5+x53-y5_53 <=1 
C214: x5+x54 <=1 
C215: x5+x55-y5_55 <=1 
C216: x5+x58-y5_58 <=1 
C217: x5+x60-y5_60 <=1 
C218: x5+x61 <=1 
C219: x5+x62-y5_62 <=1 
C220: x5+x63-y5_63 <=1 
C221: x6+x8-y6_8 <=1 
C222: x6+x9 <=1 
C223: x6+x12 <=1 
C224: x6+x14-y6_14 <=1 
C225: x6+x15 <=1 
C226: x6+x16-y6_16 <=1 
C227: x6+x17-y6_17 <=1 
C228: x6+x20-y6_20 <=1 
C229: x6+x21-y6_21 <=1 
C230: x6+x23 <=1 
C231: x6+x24-y6_24 <=1 
C232: x6+x25-y6_25 <=1 
C233: x6+x27 <=1 
C234: x6+x28-y6_28 <=1 
C235: x6+x29-y6_29 <=1 
C236: x6+x30 <=1 
C237: x6+x32-y6_32 <=1 
C238: x6+x33-y6_33 <=1 
C239: x6+x34-y6_34 <=1 
C240: x6+x37 <=1 
C241: x6+x38-y6_38 <=1 
C242: x6+x39 <=1 
C243: x6+x40 <=1 
C244: x6+x41 <=1 
C245: x6+x43-y6_43 <=1 
C246: x6+x45 <=1 
C247: x6+x47-y6_47 <=1 
C248: x6+x49 <=1 
C249: x6+x50 <=1 
C250: x6+x53 <=1 
C251: x6+x56-y6_56 <=1 
C252: x6+x57 <=1 
C253: x6+x58 <=1 
C254: x6+x59 <=1 
C255: x6+x64 <=1 
C256: x7+x9 <=1 
C257: x7+x11 <=1 
C258: x7+x13 <=1 
C259: x7+x15 <=1 
C260: x7+x19 <=1 
C261: x7+x20 <=1 
C262: x7+x24 <=1 
C263: x7+x25 <=1 
C264: x7+x26 <=1 
C265: x7+x30-y7_30 <=1 
C266: x7+x32 <=1 
C267: x7+x33-y7_33 <=1 
C268: x7+x34 <=1 
C269: x7+x35 <=1 
C270: x7+x36 <=1 
C271: x7+x37-y7_37 <=1 
C272: x7+x38 <=1 
C273: x7+x39 <=1 
C274: x7+x41-y7_41 <=1 
C275: x7+x43-y7_43 <=1 
C276: x7+x44 <=1 
C277: x7+x45 <=1 
C278: x7+x47 <=1 
C279: x7+x50-y7_50 <=1 
C280: x7+x51-y7_51 <=1 
C281: x7+x54-y7_54 <=1 
C282: x7+x57-y7_57 <=1 
C283: x7+x59-y7_59 <=1 
C284: x7+x60-y7_60 <=1 
C285: x7+x62 <=1 
C286: x7+x63 <=1 
C287: x7+x64 <=1 
C288: x8+x11-y8_11 <=1 
C289: x8+x12-y8_12 <=1 
C290: x8+x13 <=1 
C291: x8+x14 <=1 
C292: x8+x15 <=1 
C293: x8+x17 <=1 
C294: x8+x18 <=1 
C295: x8+x19-y8_19 <=1 
C296: x8+x20 <=1 
C297: x8+x22-y8_22 <=1 
C298: x8+x26-y8_26 <=1 
C299: x8+x27 <=1 
C300: x8+x28-y8_28 <=1 
C301: x8+x29-y8_29 <=1 
C302: x8+x33-y8_33 <=1 
C303: x8+x34 <=1 
C304: x8+x35 <=1 
C305: x8+x36-y8_36 <=1 
C306: x8+x37-y8_37 <=1 
C307: x8+x38 <=1 
C308: x8+x39-y8_39 <=1 
C309: x8+x40 <=1 
C310: x8+x41 <=1 
C311: x8+x42 <=1 
C312: x8+x45-y8_45 <=1 
C313: x8+x46 <=1 
C314: x8+x47 <=1 
C315: x8+x48 <=1 
C316: x8+x49-y8_49 <=1 
C317: x8+x53-y8_53 <=1 
C318: x8+x56-y8_56 <=1 
C319: x8+x57-y8_57 <=1 
C320: x8+x58 <=1 
C321: x9+x11-y9_11 <=1 
C322: x9+x12-y9_12 <=1 
C323: x9+x13 <=1 
C324: x9+x15-y9_15 <=1 
C325: x9+x16 <=1 
C326: x9+x17-y9_17 <=1 
C327: x9+x18-y9_18 <=1 
C328: x9+x19-y9_19 <=1 
C329: x9+x20 <=1 
C330: x9+x22-y9_22 <=1 
C331: x9+x23-y9_23 <=1 
C332: x9+x24-y9_24 <=1 
C333: x9+x25 <=1 
C334: x9+x27-y9_27 <=1 
C335: x9+x34-y9_34 <=1 
C336: x9+x35-y9_35 <=1 
C337: x9+x38-y9_38 <=1 
C338: x9+x40-y9_40 <=1 
C339: x9+x43-y9_43 <=1 
C340: x9+x45-y9_45 <=1 
C341: x9+x46-y9_46 <=1 
C342: x9+x47 <=1 
C343: x9+x50-y9_50 <=1 
C344: x9+x51-y9_51 <=1 
C345: x9+x52 <=1 
C346: x9+x53-y9_53 <=1 
C347: x9+x54-y9_54 <=1 
C348: x9+x55-y9_55 <=1 
C349: x9+x57-y9_57 <=1 
C350: x9+x58 <=1 
C351: x9+x60 <=1 
C352: x9+x61-y9_61 <=1 
C353: x10+x11-y10_11 <=1 
C354: x10+x12 <=1 
C355: x10+x14 <=1 
C356: x10+x15-y10_15 <=1 
C357: x10+x16-y10_16 <=1 
C358: x10+x18-y10_18 <=1 
C359: x10+x24-y10_24 <=1 
C360: x10+x25 <=1 
C361: x10+x26 <=1 
C362: x10+x27-y10_27 <=1 
C363: x10+x28 <=1 
C364: x10+x29 <=1 
C365: x10+x30-y10_30 <=1 
C366: x10+x31 <=1 
C367: x10+x32-y10_32 <=1 
C368: x10+x35 <=1 
C369: x10+x38-y10_38 <=1 
C370: x10+x45-y10_45 <=1 
C371: x10+x47-y10_47 <=1 
C372: x10+x51-y10_51 <=1 
C373: x10+x53 <=1 
C374: x10+x56-y10_56 <=1 
C375: x10+x57-y10_57 <=1 
C376: x10+x58-y10_58 <=1 
C377: x10+x59 <=1 
C378: x10+x60 <=1 
C379: x10+x61 <=1 
C380: x10+x62 <=1 
C381: x10+x64-y10_64 <=1 
C382: x11+x12 <=1 
C383: x11+x13-y11_13 <=1 
C384: x11+x14 <=1 
C385: x11+x15 <=1 
C386: x11+x16 <=1 
C387: x11+x18 <=1 
C388: x11+x22-y11_22 <=1 
C389: x11+x23 <=1 
C390: x11+x24-y11_24 <=1 
C391: x11+x25-y11_25 <=1 
C392: x11+x30 <=1 
C393: x11+x31 <=1 
C394: x11+x32-y11_32 <=1 
C395: x11+x33 <=1 
C396: x11+x35 <=1 
C397: x11+x37 <=1 
C398: x11+x38 <=1 
C399: x11+x41-y11_41 <=1 
C400: x11+x43-y11_43 <=1 
C401: x11+x45-y11_45 <=1 
C402: x11+x47 <=1 
C403: x11+x48 <=1 
C404: x11+x51-y11_51 <=1 
C405: x11+x52 <=1 
C406: x11+x53-y11_53 <=1 
C407: x11+x56 <=1 
C408: x11+x58 <=1 
C409: x11+x60-y11_60 <=1 
C410: x11+x62 <=1 
C411: x11+x64 <=1 
C412: x12+x15 <=1 
C413: x12+x16-y12_16 <=1 
C414: x12+x17 <=1 
C415: x12+x20 <=1 
C416: x12+x22 <=1 
C417: x12+x23 <=1 
C418: x12+x24-y12_24 <=1 
C419: x12+x25 <=1 
C420: x12+x27 <=1 
C421: x12+x29 <=1 
C422: x12+x30 <=1 
C423: x12+x32 <=1 
C424: x12+x34 <=1 
C425: x12+x36 <=1 
C426: x12+x37 <=1 
C427: x12+x38-y12_38 <=1 
C428: x12+x41 <=1 
C429: x12+x42 <=1 
C430: x12+x43-y12_43 <=1 
C431: x12+x44 <=1 
C432: x12+x46 <=1 
C433: x12+x47-y12_47 <=1 
C434: x12+x48-y12_48 <=1 
C435: x12+x49-y12_49 <=1 
C436: x12+x51-y12_51 <=1 
C437: x12+x52 <=1 
C438: x12+x53-y12_53 <=1 
C439: x12+x54-y12_54 <=1 
C440: x12+x62 <=1 
C441: x12+x64 <=1 
C442: x13+x14 <=1 
C443: x13+x15 <=1 
C444: x13+x16 <=1 
C445: x13+x17 <=1 
C446: x13+x18 <=1 
C447: x13+x19-y13_19 <=1 
C448: x13+x22 <=1 
C449: x13+x24 <=1 
C450: x13+x26-y13_26 <=1 
C451: x13+x27 <=1 
C452: x13+x28-y13_28 <=1 
C453: x13+x30 <=1 
C454: x13+x31 <=1 
C455: x13+x32 <=1 
C456: x13+x33 <=1 
C457: x13+x34 <=1 
C458: x13+x36-y13_36 <=1 
C459: x13+x37-y13_37 <=1 
C460: x13+x38 <=1 
C461: x13+x39 <=1 
C462: x13+x40 <=1 
C463: x13+x41-y13_41 <=1 
C464: x13+x42 <=1 
C465: x13+x43-y13_43 <=1 
C466: x13+x44-y13_44 <=1 
C467: x13+x45-y13_45 <=1 
C468: x13+x48 <=1 
C469: x13+x50 <=1 
C470: x13+x51 <=1 
C471: x13+x53 <=1 
C472: x13+x55 <=1 
C473: x13+x58 <=1 
C474: x13+x59-y13_59 <=1 
C475: x13+x60-y13_60 <=1 
C476: x13+x61 <=1 
C477: x13+x62-y13_62 <=1 
C478: x13+x63 <=1 
C479: x13+x64-y13_64 <=1 
C480: x14+x15 <=1 
C481: x14+x17 <=1 
C482: x14+x19 <=1 
C483: x14+x20 <=1 
C484: x14+x21-y14_21 <=1 
C485: x14+x22 <=1 
C486: x14+x24 <=1 
C487: x14+x25-y14_25 <=1 
C488: x14+x26 <=1 
C489: x14+x27 <=1 
C490: x14+x28 <=1 
C491: x14+x29-y14_29 <=1 
C492: x14+x30-y14_30 <=1 
C493: x14+x31-y14_31 <=1 
C494: x14+x34 <=1 
C495: x14+x36 <=1 
C496: x14+x37 <=1 
C497: x14+x38 <=1 
C498: x14+x42 <=1 
C499: x14+x43-y14_43 <=1 
C500: x14+x45 <=1 
C501: x14+x47-y14_47 <=1 
C502: x14+x48 <=1 
C503: x14+x50 <=1 
C504: x14+x51 <=1 
C505: x14+x61-y14_61 <=1 
C506: x14+x62-y14_62 <=1 
C507: x15+x20 <=1 
C508: x15+x23-y15_23 <=1 
C509: x15+x24-y15_24 <=1 
C510: x15+x26-y15_26 <=1 
C511: x15+x27-y15_27 <=1 
C512: x15+x28 <=1 
C513: x15+x29-y15_29 <=1 
C514: x15+x31-y15_31 <=1 
C515: x15+x32 <=1 
C516: x15+x34-y15_34 <=1 
C517: x15+x39-y15_39 <=1 
C518: x15+x40 <=1 
C519: x15+x41 <=1 
C520: x15+x42-y15_42 <=1 
C521: x15+x47-y15_47 <=1 
C522: x15+x48-y15_48 <=1 
C523: x15+x50 <=1 
C524: x15+x51-y15_51 <=1 
C525: x15+x52-y15_52 <=1 
C526: x15+x54-y15_54 <=1 
C527: x15+x56 <=1 
C528: x15+x57-y15_57 <=1 
C529: x15+x58-y15_58 <=1 
C530: x15+x60-y15_60 <=1 
C531: x15+x61-y15_61 <=1 
C532: x15+x62 <=1 
C533: x15+x64-y15_64 <=1 
C534: x16+x26-y16_26 <=1 
C535: x16+x29-y16_29 <=1 
C536: x16+x30 <=1 
C537: x16+x31 <=1 
C538: x16+x32-y16_32 <=1 
C539: x16+x33-y16_33 <=1 
C540: x16+x34-y16_34 <=1 
C541: x16+x35 <=1 
C542: x16+x36-y16_36 <=1 
C543: x16+x37-y16_37 <=1 
C544: x16+x42-y16_42 <=1 
C545: x16+x43-y16_43 <=1 
C546: x16+x44 <=1 
C547: x16+x46-y16_46 <=1 
C548: x16+x47 <=1 
C549: x16+x48 <=1 
C550: x16+x49 <=1 
C551: x16+x50-y16_50 <=1 
C552: x16+x51 <=1 
C553: x16+x52 <=1 
C554: x16+x55-y16_55 <=1 
C555: x16+x58 <=1 
C556: x16+x59 <=1 
C557: x16+x62 <=1 
C558: x16+x64 <=1 
C559: x17+x18 <=1 
C560: x17+x19 <=1 
C561: x17+x21-y17_21 <=1 
C562: x17+x22-y17_22 <=1 
C563: x17+x23-y17_23 <=1 
C564: x17+x26 <=1 
C565: x17+x29-y17_29 <=1 
C566: x17+x30 <=1 
C567: x17+x31-y17_31 <=1 
C568: x17+x35 <=1 
C569: x17+x36 <=1 
C570: x17+x38-y17_38 <=1 
C571: x17+x39 <=1 
C572: x17+x40-y17_40 <=1 
C573: x17+x42 <=1 
C574: x17+x43 <=1 
C575: x17+x45-y17_45 <=1 
C576: x17+x47 <=1 
C577: x17+x50-y17_50 <=1 
C578: x17+x53 <=1 
C579: x17+x56-y17_56 <=1 
C580: x17+x57 <=1 
C581: x17+x60-y17_60 <=1 
C582: x17+x62-y17_62 <=1 
C583: x17+x63-y17_63 <=1 
C584: x17+x64-y17_64 <=1 
C585: x18+x19 <=1 
C586: x18+x20-y18_20 <=1 
C587: x18+x21 <=1 
C588: x18+x23-y18_23 <=1 
C589: x18+x25-y18_25 <=1 
C590: x18+x26 <=1 
C591: x18+x27-y18_27 <=1 
C592: x18+x28 <=1 
C593: x18+x29 <=1 
C594: x18+x31 <=1 
C595: x18+x32-y18_32 <=1 
C596: x18+x34-y18_34 <=1 
C597: x18+x35-y18_35 <=1 
C598: x18+x37-y18_37 <=1 
C599: x18+x38 <=1 
C600: x18+x39 <=1 
C601: x18+x41 <=1 
C602: x18+x44 <=1 
C603: x18+x45 <=1 
C604: x18+x46 <=1 
C605: x18+x48 <=1 
C606: x18+x49-y18_49 <=1 
C607: x18+x51-y18_51 <=1 
C608: x18+x53 <=1 
C609: x18+x59 <=1 
C610: x18+x60 <=1 
C611: x18+x62 <=1 
C612: x18+x63 <=1 
C613: x19+x20 <=1 
C614: x19+x23-y19_23 <=1 
C615: x19+x26-y19_26 <=1 
C616: x19+x29 <=1 
C617: x19+x31-y19_31 <=1 
C618: x19+x32 <=1 
C619: x19+x33-y19_33 <=1 
C620: x19+x34 <=1 
C621: x19+x36-y19_36 <=1 
C622: x19+x37-y19_37 <=1 
C623: x19+x38 <=1 
C624: x19+x42-y19_42 <=1 
C625: x19+x43-y19_43 <=1 
C626: x19+x44 <=1 
C627: x19+x46 <=1 
C628: x19+x49 <=1 
C629: x19+x50 <=1 
C630: x19+x52 <=1 
C631: x19+x53-y19_53 <=1 
C632: x19+x55-y19_55 <=1 
C633: x19+x56-y19_56 <=1 
C634: x19+x57 <=1 
C635: x19+x58-y19_58 <=1 
C636: x19+x60 <=1 
C637: x19+x63 <=1 
C638: x20+x21-y20_21 <=1 
C639: x20+x24-y20_24 <=1 
C640: x20+x25-y20_25 <=1 
C641: x20+x26 <=1 
C642: x20+x27 <=1 
C643: x20+x28 <=1 
C644: x20+x31 <=1 
C645: x20+x33 <=1 
C646: x20+x34-y20_34 <=1 
C647: x20+x36 <=1 
C648: x20+x37-y20_37 <=1 
C649: x20+x39 <=1 
C650: x20+x41-y20_41 <=1 
C651: x20+x42-y20_42 <=1 
C652: x20+x43 <=1 
C653: x20+x47 <=1 
C654: x20+x49 <=1 
C655: x20+x50 <=1 
C656: x20+x51 <=1 
C657: x20+x53-y20_53 <=1 
C658: x20+x54-y20_54 <=1 
C659: x20+x55-y20_55 <=1 
C660: x20+x57 <=1 
C661: x20+x58-y20_58 <=1 
C662: x20+x61 <=1 
C663: x20+x62 <=1 
C664: x20+x64-y20_64 <=1 
C665: x21+x22-y21_22 <=1 
C666: x21+x23 <=1 
C667: x21+x25-y21_25 <=1 
C668: x21+x26 <=1 
C669: x21+x27-y21_27 <=1 
C670: x21+x29 <=1 
C671: x21+x30-y21_30 <=1 
C672: x21+x31-y21_31 <=1 
C673: x21+x32 <=1 
C674: x21+x34 <=1 
C675: x21+x37 <=1 
C676: x21+x38-y21_38 <=1 
C677: x21+x39 <=1 
C678: x21+x40-y21_40 <=1 
C679: x21+x41 <=1 
C680: x21+x43-y21_43 <=1 
C681: x21+x47 <=1 
C682: x21+x52 <=1 
C683: x21+x55-y21_55 <=1 
C684: x21+x57 <=1 
C685: x21+x60-y21_60 <=1 
C686: x21+x61-y21_61 <=1 
C687: x21+x62-y21_62 <=1 
C688: x21+x64 <=1 
C689: x22+x23-y22_23 <=1 
C690: x22+x27-y22_27 <=1 
C691: x22+x29-y22_29 <=1 
C692: x22+x30 <=1 
C693: x22+x31 <=1 
C694: x22+x33-y22_33 <=1 
C695: x22+x34 <=1 
C696: x22+x36-y22_36 <=1 
C697: x22+x38 <=1 
C698: x22+x39-y22_39 <=1 
C699: x22+x40-y22_40 <=1 
C700: x22+x41 <=1 
C701: x22+x43-y22_43 <=1 
C702: x22+x44-y22_44 <=1 
C703: x22+x45 <=1 
C704: x22+x46-y22_46 <=1 
C705: x22+x49-y22_49 <=1 
C706: x22+x51-y22_51 <=1 
C707: x22+x52 <=1 
C708: x22+x55 <=1 
C709: x22+x58-y22_58 <=1 
C710: x22+x59-y22_59 <=1 
C711: x22+x60-y22_60 <=1 
C712: x22+x61-y22_61 <=1 
C713: x22+x62-y22_62 <=1 
C714: x22+x63 <=1 
C715: x22+x64-y22_64 <=1 
C716: x23+x24 <=1 
C717: x23+x25-y23_25 <=1 
C718: x23+x28-y23_28 <=1 
C719: x23+x29 <=1 
C720: x23+x30-y23_30 <=1 
C721: x23+x32 <=1 
C722: x23+x35 <=1 
C723: x23+x37-y23_37 <=1 
C724: x23+x39 <=1 
C725: x23+x40-y23_40 <=1 
C726: x23+x45 <=1 
C727: x23+x46 <=1 
C728: x23+x47 <=1 
C729: x23+x49 <=1 
C730: x23+x51-y23_51 <=1 
C731: x23+x52 <=1 
C732: x23+x53 <=1 
C733: x23+x55-y23_55 <=1 
C734: x23+x57 <=1 
C735: x23+x58 <=1 
C736: x23+x61-y23_61 <=1 
C737: x23+x63 <=1 
C738: x23+x64 <=1 
C739: x24+x25-y24_25 <=1 
C740: x24+x26-y24_26 <=1 
C741: x24+x27-y24_27 <=1 
C742: x24+x30 <=1 
C743: x24+x31 <=1 
C744: x24+x32-y24_32 <=1 
C745: x24+x34 <=1 
C746: x24+x35-y24_35 <=1 
C747: x24+x37-y24_37 <=1 
C748: x24+x38 <=1 
C749: x24+x39-y24_39 <=1 
C750: x24+x40 <=1 
C751: x24+x41-y24_41 <=1 
C752: x24+x42 <=1 
C753: x24+x43 <=1 
C754: x24+x44-y24_44 <=1 
C755: x24+x45-y24_45 <=1 
C756: x24+x46-y24_46 <=1 
C757: x24+x47 <=1 
C758: x24+x49 <=1 
C759: x24+x51 <=1 
C760: x24+x52 <=1 
C761: x24+x53 <=1 
C762: x24+x54-y24_54 <=1 
C763: x24+x56 <=1 
C764: x24+x57-y24_57 <=1 
C765: x24+x58 <=1 
C766: x24+x61-y24_61 <=1 
C767: x24+x63 <=1 
C768: x24+x64 <=1 
C769: x25+x26 <=1 
C770: x25+x27 <=1 
C771: x25+x29 <=1 
C772: x25+x30-y25_30 <=1 
C773: x25+x31-y25_31 <=1 
C774: x25+x32-y25_32 <=1 
C775: x25+x34-y25_34 <=1 
C776: x25+x37 <=1 
C777: x25+x40-y25_40 <=1 
C778: x25+x41-y25_41 <=1 
C779: x25+x42 <=1 
C780: x25+x43 <=1 
C781: x25+x45 <=1 
C782: x25+x47 <=1 
C783: x25+x48 <=1 
C784: x25+x49 <=1 
C785: x25+x50-y25_50 <=1 
C786: x25+x51-y25_51 <=1 
C787: x25+x52 <=1 
C788: x25+x53 <=1 
C789: x25+x55-y25_55 <=1 
C790: x25+x56 <=1 
C791: x25+x57-y25_57 <=1 
C792: x25+x58 <=1 
C793: x25+x60 <=1 
C794: x25+x61-y25_61 <=1 
C795: x25+x62 <=1 
C796: x25+x63-y25_63 <=1 
C797: x25+x64-y25_64 <=1 
C798: x26+x28 <=1 
C799: x26+x29-y26_29 <=1 
C800: x26+x31 <=1 
C801: x26+x32-y26_32 <=1 
C802: x26+x33 <=1 
C803: x26+x34 <=1 
C804: x26+x36 <=1 
C805: x26+x37-y26_37 <=1 
C806: x26+x38 <=1 
C807: x26+x39-y26_39 <=1 
C808: x26+x41-y26_41 <=1 
C809: x26+x42 <=1 
C810: x26+x43-y26_43 <=1 
C811: x26+x44-y26_44 <=1 
C812: x26+x45 <=1 
C813: x26+x46-y26_46 <=1 
C814: x26+x52 <=1 
C815: x26+x54-y26_54 <=1 
C816: x26+x55 <=1 
C817: x26+x59-y26_59 <=1 
C818: x26+x61-y26_61 <=1 
C819: x26+x64 <=1 
C820: x27+x29 <=1 
C821: x27+x31-y27_31 <=1 
C822: x27+x32-y27_32 <=1 
C823: x27+x33-y27_33 <=1 
C824: x27+x35 <=1 
C825: x27+x38-y27_38 <=1 
C826: x27+x39 <=1 
C827: x27+x41-y27_41 <=1 
C828: x27+x42 <=1 
C829: x27+x43 <=1 
C830: x27+x44 <=1 
C831: x27+x46-y27_46 <=1 
C832: x27+x47 <=1 
C833: x27+x48 <=1 
C834: x27+x51-y27_51 <=1 
C835: x27+x52 <=1 
C836: x27+x53-y27_53 <=1 
C837: x27+x56 <=1 
C838: x27+x57-y27_57 <=1 
C839: x27+x58 <=1 
C840: x27+x60 <=1 
C841: x27+x62 <=1 
C842: x27+x64-y27_64 <=1 
C843: x28+x31-y28_31 <=1 
C844: x28+x32 <=1 
C845: x28+x33-y28_33 <=1 
C846: x28+x36 <=1 
C847: x28+x39 <=1 
C848: x28+x40-y28_40 <=1 
C849: x28+x41 <=1 
C850: x28+x42 <=1 
C851: x28+x43-y28_43 <=1 
C852: x28+x45-y28_45 <=1 
C853: x28+x48 <=1 
C854: x28+x49 <=1 
C855: x28+x50 <=1 
C856: x28+x51-y28_51 <=1 
C857: x28+x55-y28_55 <=1 
C858: x28+x56-y28_56 <=1 
C859: x28+x57 <=1 
C860: x28+x58 <=1 
C861: x28+x61 <=1 
C862: x28+x62 <=1 
C863: x28+x63-y28_63 <=1 
C864: x29+x30-y29_30 <=1 
C865: x29+x31 <=1 
C866: x29+x32-y29_32 <=1 
C867: x29+x35 <=1 
C868: x29+x36-y29_36 <=1 
C869: x29+x38-y29_38 <=1 
C870: x29+x39-y29_39 <=1 
C871: x29+x40 <=1 
C872: x29+x41 <=1 
C873: x29+x42-y29_42 <=1 
C874: x29+x43-y29_43 <=1 
C875: x29+x45 <=1 
C876: x29+x48-y29_48 <=1 
C877: x29+x50-y29_50 <=1 
C878: x29+x54-y29_54 <=1 
C879: x29+x55 <=1 
C880: x29+x57 <=1 
C881: x29+x59-y29_59 <=1 
C882: x29+x60-y29_60 <=1 
C883: x29+x61-y29_61 <=1 
C884: x29+x62 <=1 
C885: x29+x63-y29_63 <=1 
C886: x29+x64-y29_64 <=1 
C887: x30+x31 <=1 
C888: x30+x33-y30_33 <=1 
C889: x30+x34-y30_34 <=1 
C890: x30+x35 <=1 
C891: x30+x36-y30_36 <=1 
C892: x30+x37-y30_37 <=1 
C893: x30+x39 <=1 
C894: x30+x40-y30_40 <=1 
C895: x30+x41-y30_41 <=1 
C896: x30+x43-y30_43 <=1 
C897: x30+x44 <=1 
C898: x30+x45 <=1 
C899: x30+x46 <=1 
C900: x30+x47 <=1 
C901: x30+x48 <=1 
C902: x30+x49 <=1 
C903: x30+x52-y30_52 <=1 
C904: x30+x53 <=1 
C905: x30+x56-y30_56 <=1 
C906: x30+x57-y30_57 <=1 
C907: x30+x58 <=1 
C908: x30+x60-y30_60 <=1 
C909: x30+x61 <=1 
C910: x30+x62-y30_62 <=1 
C911: x30+x63 <=1 
C912: x31+x32 <=1 
C913: x31+x34 <=1 
C914: x31+x35-y31_35 <=1 
C915: x31+x36 <=1 
C916: x31+x37-y31_37 <=1 
C917: x31+x38 <=1 
C918: x31+x39 <=1 
C919: x31+x40-y31_40 <=1 
C920: x31+x41-y31_41 <=1 
C921: x31+x42-y31_42 <=1 
C922: x31+x43-y31_43 <=1 
C923: x31+x45 <=1 
C924: x31+x48 <=1 
C925: x31+x49 <=1 
C926: x31+x51 <=1 
C927: x31+x55 <=1 
C928: x31+x56 <=1 
C929: x31+x57 <=1 
C930: x31+x60 <=1 
C931: x31+x61 <=1 
C932: x31+x62-y31_62 <=1 
C933: x31+x64 <=1 
C934: x32+x34-y32_34 <=1 
C935: x32+x35 <=1 
C936: x32+x37 <=1 
C937: x32+x38-y32_38 <=1 
C938: x32+x39 <=1 
C939: x32+x40-y32_40 <=1 
C940: x32+x41-y32_41 <=1 
C941: x32+x43-y32_43 <=1 
C942: x32+x47-y32_47 <=1 
C943: x32+x48-y32_48 <=1 
C944: x32+x49 <=1 
C945: x32+x52 <=1 
C946: x32+x55-y32_55 <=1 
C947: x32+x57 <=1 
C948: x32+x59 <=1 
C949: x32+x60-y32_60 <=1 
C950: x32+x62 <=1 
C951: x32+x64 <=1 
C952: x33+x34-y33_34 <=1 
C953: x33+x35 <=1 
C954: x33+x37 <=1 
C955: x33+x40 <=1 
C956: x33+x41-y33_41 <=1 
C957: x33+x42-y33_42 <=1 
C958: x33+x45-y33_45 <=1 
C959: x33+x47 <=1 
C960: x33+x51 <=1 
C961: x33+x52-y33_52 <=1 
C962: x33+x53-y33_53 <=1 
C963: x33+x54 <=1 
C964: x33+x55 <=1 
C965: x33+x57-y33_57 <=1 
C966: x33+x58-y33_58 <=1 
C967: x33+x59 <=1 
C968: x33+x60-y33_60 <=1 
C969: x33+x62 <=1 
C970: x33+x64-y33_64 <=1 
C971: x34+x35-y34_35 <=1 
C972: x34+x37-y34_37 <=1 
C973: x34+x38 <=1 
C974: x34+x44 <=1 
C975: x34+x45 <=1 
C976: x34+x46 <=1 
C977: x34+x47-y34_47 <=1 
C978: x34+x49 <=1 
C979: x34+x51 <=1 
C980: x34+x52 <=1 
C981: x34+x53 <=1 
C982: x34+x57 <=1 
C983: x34+x59-y34_59 <=1 
C984: x34+x61-y34_61 <=1 
C985: x34+x64 <=1 
C986: x35+x37 <=1 
C987: x35+x38-y35_38 <=1 
C988: x35+x40 <=1 
C989: x35+x41-y35_41 <=1 
C990: x35+x43 <=1 
C991: x35+x44-y35_44 <=1 
C992: x35+x45-y35_45 <=1 
C993: x35+x46 <=1 
C994: x35+x48-y35_48 <=1 
C995: x35+x49 <=1 
C996: x35+x51-y35_51 <=1 
C997: x35+x54 <=1 
C998: x35+x55-y35_55 <=1 
C999: x35+x56-y35_56 <=1 
C1000: x35+x57 <=1 
C1001: x35+x61-y35_61 <=1 
C1002: x36+x39 <=1 
C1003: x36+x40-y36_40 <=1 
C1004: x36+x41 <=1 
C1005: x36+x44 <=1 
C1006: x36+x45-y36_45 <=1 
C1007: x36+x46 <=1 
C1008: x36+x47 <=1 
C1009: x36+x48-y36_48 <=1 
C1010: x36+x49 <=1 
C1011: x36+x50 <=1 
C1012: x36+x51 <=1 
C1013: x36+x52 <=1 
C1014: x36+x54 <=1 
C1015: x36+x55 <=1 
C1016: x36+x56 <=1 
C1017: x36+x58-y36_58 <=1 
C1018: x36+x63-y36_63 <=1 
C1019: x36+x64-y36_64 <=1 
C1020: x37+x39-y37_39 <=1 
C1021: x37+x40 <=1 
C1022: x37+x41 <=1 
C1023: x37+x42 <=1 
C1024: x37+x44 <=1 
C1025: x37+x46 <=1 
C1026: x37+x48-y37_48 <=1 
C1027: x37+x50-y37_50 <=1 
C1028: x37+x51-y37_51 <=1 
C1029: x37+x52 <=1 
C1030: x37+x54 <=1 
C1031: x37+x55 <=1 
C1032: x37+x57-y37_57 <=1 
C1033: x37+x61-y37_61 <=1 
C1034: x37+x62 <=1 
C1035: x38+x39 <=1 
C1036: x38+x42 <=1 
C1037: x38+x43 <=1 
C1038: x38+x44-y38_44 <=1 
C1039: x38+x45 <=1 
C1040: x38+x47-y38_47 <=1 
C1041: x38+x48-y38_48 <=1 
C1042: x38+x49 <=1 
C1043: x38+x50 <=1 
C1044: x38+x51-y38_51 <=1 
C1045: x38+x56-y38_56 <=1 
C1046: x38+x58-y38_58 <=1 
C1047: x38+x59-y38_59 <=1 
C1048: x38+x61-y38_61 <=1 
C1049: x38+x62-y38_62 <=1 
C1050: x38+x64-y38_64 <=1 
C1051: x39+x41-y39_41 <=1 
C1052: x39+x42 <=1 
C1053: x39+x43-y39_43 <=1 
C1054: x39+x44-y39_44 <=1 
C1055: x39+x45 <=1 
C1056: x39+x46 <=1 
C1057: x39+x48 <=1 
C1058: x39+x51 <=1 
C1059: x39+x52-y39_52 <=1 
C1060: x39+x54-y39_54 <=1 
C1061: x39+x57 <=1 
C1062: x39+x58-y39_58 <=1 
C1063: x39+x59 <=1 
C1064: x39+x60-y39_60 <=1 
C1065: x39+x62 <=1 
C1066: x39+x63 <=1 
C1067: x39+x64 <=1 
C1068: x40+x42 <=1 
C1069: x40+x44-y40_44 <=1 
C1070: x40+x45 <=1 
C1071: x40+x46 <=1 
C1072: x40+x47 <=1 
C1073: x40+x48 <=1 
C1074: x40+x50 <=1 
C1075: x40+x52-y40_52 <=1 
C1076: x40+x53 <=1 
C1077: x40+x54-y40_54 <=1 
C1078: x40+x55-y40_55 <=1 
C1079: x40+x56-y40_56 <=1 
C1080: x40+x57 <=1 
C1081: x40+x60-y40_60 <=1 
C1082: x40+x61 <=1 
C1083: x40+x63-y40_63 <=1 
C1084: x41+x42-y41_42 <=1 
C1085: x41+x44-y41_44 <=1 
C1086: x41+x46-y41_46 <=1 
C1087: x41+x47 <=1 
C1088: x41+x54 <=1 
C1089: x41+x55 <=1 
C1090: x41+x62 <=1 
C1091: x41+x63 <=1 
C1092: x42+x44 <=1 
C1093: x42+x46 <=1 
C1094: x42+x47 <=1 
C1095: x42+x49-y42_49 <=1 
C1096: x42+x50-y42_50 <=1 
C1097: x42+x51-y42_51 <=1 
C1098: x42+x53 <=1 
C1099: x42+x54 <=1 
C1100: x42+x55-y42_55 <=1 
C1101: x42+x56 <=1 
C1102: x42+x57 <=1 
C1103: x42+x58-y42_58 <=1 
C1104: x42+x60 <=1 
C1105: x42+x61 <=1 
C1106: x42+x62 <=1 
C1107: x42+x63 <=1 
C1108: x43+x44 <=1 
C1109: x43+x45-y43_45 <=1 
C1110: x43+x50-y43_50 <=1 
C1111: x43+x53-y43_53 <=1 
C1112: x43+x54-y43_54 <=1 
C1113: x43+x55 <=1 
C1114: x43+x56-y43_56 <=1 
C1115: x43+x58 <=1 
C1116: x43+x59 <=1 
C1117: x43+x61-y43_61 <=1 
C1118: x43+x64-y43_64 <=1 
C1119: x44+x46-y44_46 <=1 
C1120: x44+x47-y44_47 <=1 
C1121: x44+x48-y44_48 <=1 
C1122: x44+x49 <=1 
C1123: x44+x51-y44_51 <=1 
C1124: x44+x52 <=1 
C1125: x44+x53 <=1 
C1126: x44+x54 <=1 
C1127: x44+x55 <=1 
C1128: x44+x57 <=1 
C1129: x44+x58 <=1 
C1130: x44+x59 <=1 
C1131: x44+x60 <=1 
C1132: x44+x62 <=1 
C1133: x44+x63-y44_63 <=1 
C1134: x44+x64-y44_64 <=1 
C1135: x45+x49 <=1 
C1136: x45+x50 <=1 
C1137: x45+x54 <=1 
C1138: x45+x58-y45_58 <=1 
C1139: x45+x59 <=1 
C1140: x45+x61 <=1 
C1141: x45+x62-y45_62 <=1 
C1142: x45+x63 <=1 
C1143: x46+x47-y46_47 <=1 
C1144: x46+x48-y46_48 <=1 
C1145: x46+x49 <=1 
C1146: x46+x51-y46_51 <=1 
C1147: x46+x55-y46_55 <=1 
C1148: x46+x56-y46_56 <=1 
C1149: x46+x57-y46_57 <=1 
C1150: x46+x58 <=1 
C1151: x46+x59-y46_59 <=1 
C1152: x46+x61-y46_61 <=1 
C1153: x46+x62-y46_62 <=1 
C1154: x46+x63-y46_63 <=1 
C1155: x47+x49-y47_49 <=1 
C1156: x47+x50 <=1 
C1157: x47+x52 <=1 
C1158: x47+x53 <=1 
C1159: x47+x54 <=1 
C1160: x47+x59 <=1 
C1161: x47+x60-y47_60 <=1 
C1162: x47+x61 <=1 
C1163: x47+x63 <=1 
C1164: x47+x64 <=1 
C1165: x48+x51-y48_51 <=1 
C1166: x48+x53 <=1 
C1167: x48+x54 <=1 
C1168: x48+x55 <=1 
C1169: x48+x56 <=1 
C1170: x48+x58-y48_58 <=1 
C1171: x48+x59-y48_59 <=1 
C1172: x49+x50 <=1 
C1173: x49+x52-y49_52 <=1 
C1174: x49+x54 <=1 
C1175: x49+x57 <=1 
C1176: x49+x58 <=1 
C1177: x49+x62 <=1 
C1178: x49+x63-y49_63 <=1 
C1179: x49+x64 <=1 
C1180: x50+x52 <=1 
C1181: x50+x54 <=1 
C1182: x50+x55 <=1 
C1183: x50+x56-y50_56 <=1 
C1184: x50+x58-y50_58 <=1 
C1185: x50+x59 <=1 
C1186: x50+x60 <=1 
C1187: x50+x61 <=1 
C1188: x50+x62 <=1 
C1189: x50+x63 <=1 
C1190: x50+x64-y50_64 <=1 
C1191: x51+x52-y51_52 <=1 
C1192: x51+x53 <=1 
C1193: x51+x56-y51_56 <=1 
C1194: x51+x58 <=1 
C1195: x51+x60 <=1 
C1196: x51+x61-y51_61 <=1 
C1197: x51+x64 <=1 
C1198: x52+x53-y52_53 <=1 
C1199: x52+x54-y52_54 <=1 
C1200: x52+x56 <=1 
C1201: x52+x60-y52_60 <=1 
C1202: x52+x61-y52_61 <=1 
C1203: x52+x62-y52_62 <=1 
C1204: x52+x63-y52_63 <=1 
C1205: x52+x64 <=1 
C1206: x53+x56-y53_56 <=1 
C1207: x53+x57 <=1 
C1208: x53+x59-y53_59 <=1 
C1209: x53+x60 <=1 
C1210: x54+x57 <=1 
C1211: x54+x60-y54_60 <=1 
C1212: x54+x61-y54_61 <=1 
C1213: x54+x62-y54_62 <=1 
C1214: x54+x63 <=1 
C1215: x54+x64 <=1 
C1216: x55+x57 <=1 
C1217: x56+x57 <=1 
C1218: x56+x58 <=1 
C1219: x56+x59 <=1 
C1220: x56+x62 <=1 
C1221: x56+x63 <=1 
C1222: x57+x59-y57_59 <=1 
C1223: x57+x60 <=1 
C1224: x57+x63 <=1 
C1225: x57+x64 <=1 
C1226: x58+x63-y58_63 <=1 
C1227: x58+x64 <=1 
C1228: x59+x60-y59_60 <=1 
C1229: x59+x62-y59_62 <=1 
C1230: x59+x63-y59_63 <=1 
C1231: x60+x64 <=1 
C1232: x61+x62-y61_62 <=1 
C1233: x61+x64 <=1 
C1234: x62+x63 <=1 
C1235: x63+x64-y63_64 <=1 

binary
x0
x1
x2
x3
x4
x5
x6
x7
x8
x9
x10
x11
x12
x13
x14
x15
x16
x17
x18
x19
x20
x21
x22
x23
x24
x25
x26
x27
x28
x29
x30
x31
x32
x33
x34
x35
x36
x37
x38
x39
x40
x41
x42
x43
x44
x45
x46
x47
x48
x49
x50
x51
x52
x53
x54
x55
x56
x57
x58
x59
x60
x61
x62
x63
x64
