problem_generation/data/GISP/train/er_n=65_m=1235_p=0.60_SET2_setparam=100.00_alpha=0.50_223.sol
objective value:                                 1181
x1                                                  1 	(obj:100)
x2                                                  1 	(obj:100)
x7                                                  1 	(obj:100)
x12                                                 1 	(obj:100)
x14                                                 1 	(obj:100)
x21                                                 1 	(obj:100)
x53                                                 1 	(obj:100)
x54                                                 1 	(obj:100)
x55                                                 1 	(obj:100)
x58                                                 1 	(obj:100)
x59                                                 1 	(obj:100)
x61                                                 1 	(obj:100)
y21_55                                              1 	(obj:-1)
y2_59                                               1 	(obj:-1)
y2_12                                               1 	(obj:-1)
y2_21                                               1 	(obj:-1)
y12_53                                              1 	(obj:-1)
y2_53                                               1 	(obj:-1)
y2_61                                               1 	(obj:-1)
y21_61                                              1 	(obj:-1)
y14_21                                              1 	(obj:-1)
y1_55                                               1 	(obj:-1)
y1_59                                               1 	(obj:-1)
y54_61                                              1 	(obj:-1)
y12_54                                              1 	(obj:-1)
y1_12                                               1 	(obj:-1)
y53_59                                              1 	(obj:-1)
y7_59                                               1 	(obj:-1)
y1_2                                                1 	(obj:-1)
y7_54                                               1 	(obj:-1)
y14_61                                              1 	(obj:-1)
